12
0 150 169 102 138 114 167 104 139 133 156 127
150 0 193 192 171 110 149 152 199 177 132 129
169 193 0 164 121 135 172 162 121 100 153 145
102 192 164 0 119 137 144 157 181 164 135 170
138 171 121 119 0 187 103 176 136 179 118 159
114 110 135 137 187 0 157 169 123 158 147 153
167 149 172 144 103 157 0 187 198 183 190 143
104 152 162 157 176 169 187 0 117 170 105 117
139 199 121 181 136 123 198 117 0 136 182 130
133 177 100 164 179 158 183 170 136 0 131 113
156 132 153 135 118 147 190 105 182 131 0 192
127 129 145 170 159 153 143 117 130 113 192 0